187238
97,41,98,67,18,33,82,79,88,92,11,22,56,23,101,73,46,3,102,60,13,49,25,8,91,7,105,96,64,4,54,28,29,51,80,99,31,14,59,78,43,65,58,9,0,75,27,26,86,57,42,90,95,77,93,2,100,104,37,35,10,40,53,103,66,69,38,83,52,6,34,74,62,17,48,36,70,94,84,47,72,32,71,50,44,81,1,61,21,45,85,24,76,15,19,63,5,68,55,89,16,20,39,87,12,30